max: 4 y1 + 4 y2 + 6 y3 + 6 y4 + 7 y5 + 4 y6 + 4 y7 + 6 y8 + 8 y9 + 5 y10 + 6 y11 + 8 y12 + 7 y13 + 5 y14 + 8 y15 + 2 y16 + 4 y17 + 2 y18;

y16 + y17 + y18 <= 1;
-y1 - y2 - y7 <= 0;
-y10 - y14 <= 0;
y1 - y3 <= 0;
y2 + y3 + y4 - y5 <= 0;
-y4 - y8 + y10 - y11 <= 0;
y5 + y6 - y16 <= 0;
-y6 + y7 + y8 + y9 - y17 <= 0;
-y9 - y12 + y14 - y15 <= 0;
y11 + y12 + y13 - y18 <= 0;
-y13 + y15 <= 0;